c A SAT instance generated from a 3-CNF formula that had 25 clauses and 25 variables
p cnf 25 25
22 -8 -3 0
23 24 19 0
19 21 -20 0
25 13 -23 0
9 22 25 0
-24 -6 -13 0
-3 -25 22 0
-5 14 -1 0
-20 12 17 0
-11 1 9 0
15 10 2 0
5 22 20 0
8 6 20 0
2 -3 5 0
9 -15 3 0
-25 -10 24 0
-20 11 -16 0
25 10 -7 0
15 -4 9 0
1 -22 -16 0
17 11 -9 0
24 -8 5 0
-23 -6 -13 0
-16 -6 -10 0
9 -21 -2 0
%
0

15 3 40 63 19 91 72 51 36 5 82 3 1 36 57 13 20 94 7 31 24 7 88 41 19
